\ LP format - for model browsing. Use MPS format to capture full model detail.
\ Signature: 0x1fc7b21e380c8d16
Maximize
  8 c + 11 t
Subject To
 R0: 2 c + 2 t <= 24
 R1: c + 2 t <= 18
Bounds
Generals
 c t
End
